NAME          COPTPROB
OBJSENSE
  MIN
ROWS
 N  __OBJ___
 L  C17     
 L  C125    
 L  C181    
COLUMNS
    MARKER    'MARKER'                 'INTORG'
    x1056     __OBJ___  63
    x1056     C17       -1
    x1056     C181      -1
    x2013     __OBJ___  29
    x2013     C181      -1
    x2887     __OBJ___  41
    x2887     C17       -1
    x2983     __OBJ___  86
    x2983     C17       -1
    x2983     C125      -1
    x3042     __OBJ___  86
    x3042     C125      -1
    x3042     C181      -1
    MARKER    'MARKER'                 'INTEND'
RHS
    RHS       __OBJ___  -5396
    RHS       C17       -1
    RHS       C125      -1
    RHS       C181      -1
BOUNDS
 UP BOUND     x1056     1
 UP BOUND     x2013     1
 UP BOUND     x2887     1
 UP BOUND     x2983     1
 UP BOUND     x3042     1
ENDATA
